NAME : in_house_8_3
TYPE : TSP
DIMENSION : 8
EDGE_WEIGHT_TYPE : EXPLICIT
EDGE_WEIGHT_FORMAT : UPPER_ROW
COMMENT : INVERSION_SHIFT=2
EDGE_WEIGHT_SECTION
20
28
63
42
28
36
43
4
6
48
12
56
22
17
63
8
58
2
10
33
29
11
38
23
41
29
44
4
